Problem:    
Rows:       260
Columns:    89 (72 integer, 72 binary)
Non-zeros:  812
Status:     INTEGER OPTIMAL
Objective:  value = 35.186344 (MINimum)

   No.   Row name        Activity     Lower bound   Upper bound
------ ------------    ------------- ------------- -------------
     1 r.5                   1035.19             0               
     2 r.6                  -988.249      -992.206               
     3 r.7                   35.1863             0               
     4 r.8                   11.7506       -980.92               
     5 r.9                   35.1863             0               
     6 r.10                  23.3377      -992.244               
     7 r.11                  1035.19             0               
     8 r.12                 -976.662      -980.985               
     9 r.13                  35.1863             0               
    10 r.14                 -999.223      -999.523               
    11 r.15                  1035.19             0               
    12 r.16                 -996.468       -998.74               
    13 r.17                  35.1863             0               
    14 r.18                  23.3377      -999.186               
    15 r.19                  1035.19             0               
    16 r.20                 -997.727      -998.027               
    17 r.21                  1035.19             0               
    18 r.22                 -996.043      -996.342               
    19 r.23                  35.1863             0               
    20 r.24                  11.7506      -991.291               
    21 r.25                  1035.19             0               
    22 r.26                 -999.701      -999.701               
    23 r.27                  35.1863             0               
    24 r.28                 0.299333      -999.193               
    25 r.29                  1035.19             0               
    26 r.30                 -964.814      -988.151               
    27 r.31                  35.1863             0               
    28 r.32                  35.1863      -969.431               
    29 r.33                  1035.19             0               
    30 r.34                 -976.662      -988.413               
    31 r.35                  35.1863             0               
    32 r.36                  35.1863      -971.278               
    33 r.37                        1             1             = 
    34 r.38                        1             1             = 
    35 r.39                        1             1             = 
    36 r.40                        1             1             = 
    37 r.41                        1             1             = 
    38 r.42                        1             1             = 
    39 r.43                        1             1             = 
    40 r.44                        1             1             = 
    41 r.45                     1001             2               
    42 r.46                    -1001         -1001               
    43 r.47                  2011.59      -992.244               
    44 r.48                     1001             2               
    45 r.49                    -1001         -1001               
    46 r.50                  2011.59      -980.985               
    47 r.51                     1001             2               
    48 r.52                    -1001         -1001               
    49 r.53                  989.026      -999.523               
    50 r.54                     1001             2               
    51 r.55                    -1001         -1001               
    52 r.56                  1991.78       -998.74               
    53 r.57                     1001             2               
    54 r.58                    -1001         -1001               
    55 r.59                  2011.59      -999.186               
    56 r.60                     1001             2               
    57 r.61                    -1001         -1001               
    58 r.62                  1990.52      -998.027               
    59 r.63                        2             2               
    60 r.64                       -2         -1001               
    61 r.65                 -7.79371      -996.342               
    62 r.66                     1000             2               
    63 r.67                    -1000         -1001               
    64 r.68                     2000      -991.291               
    65 r.69                 -988.549      -992.206               
    66 r.70                  11.4513       -980.92               
    67 r.71                 -988.549      -992.206               
    68 r.72                  11.4513       -980.92               
    69 r.73                 -976.564      -988.151               
    70 r.74                  23.4357      -969.431               
    71 r.75                 -976.564      -988.151               
    72 r.76                  23.4357      -969.431               
    73 r.77                 -988.413      -988.413               
    74 r.78                  23.4357      -971.278               
    75 r.79                 -988.413      -988.413               
    76 r.80                  23.4357      -971.278               
    77 r.81                     1001             2               
    78 r.82                    -1001         -1001               
    79 r.83                  1988.41       7.79371               
    80 r.84                     1001             2               
    81 r.85                    -1001         -1001               
    82 r.86                  1988.41         19.08               
    83 r.87                     1000             2               
    84 r.88                    -1000         -1001               
    85 r.89                  977.439      -999.523               
    86 r.90                        2             2               
    87 r.91                       -2         -1001               
    88 r.92                 -19.8053       -998.74               
    89 r.93                     1000             2               
    90 r.94                    -1000         -1001               
    91 r.95                     2000      -999.186               
    92 r.96                        2             2               
    93 r.97                       -2         -1001               
    94 r.98                 -21.0651      -998.027               
    95 r.99                     1001             2               
    96 r.100                   -1001         -1001               
    97 r.101                 1980.62      -996.342               
    98 r.102                    1001             2               
    99 r.103                   -1001         -1001               
   100 r.104                 1988.41      -991.291               
   101 r.105                 23.0384      -992.244               
   102 r.106                -976.962      -980.985               
   103 r.107                 23.0384      -992.244               
   104 r.108                -976.962      -980.985               
   105 r.109                -988.151      -988.151               
   106 r.110                 11.8486      -969.431               
   107 r.111                -988.151      -988.151               
   108 r.112                 11.8486      -969.431               
   109 r.113                    1001             2               
   110 r.114                   -1001         -1001               
   111 r.115                    2000      -988.413               
   112 r.116                    1001             2               
   113 r.117                   -1001         -1001               
   114 r.118                 2011.85      -971.278               
   115 r.119                    1001             2               
   116 r.120                   -1001         -1001               
   117 r.121                 3010.97       7.79371               
   118 r.122                    1001             2               
   119 r.123                   -1001         -1001               
   120 r.124                 2008.22         19.08               
   121 r.125                    1000             2               
   122 r.126                   -1000         -1001               
   123 r.127                 3022.56        7.7562               
   124 r.128                       2             2               
   125 r.129                      -2         -1001               
   126 r.130                 19.8053       19.0147               
   127 r.131                    1000             2               
   128 r.132                   -1000         -1001               
   129 r.133                 3022.56      -999.186               
   130 r.134                       2             2               
   131 r.135                      -2         -1001               
   132 r.136                -1.25981      -998.027               
   133 r.137                    1001             2               
   134 r.138                   -1001         -1001               
   135 r.139                 3003.18      -996.342               
   136 r.140                    1001             2               
   137 r.141                   -1001         -1001               
   138 r.142                 2008.22      -991.291               
   139 r.143                -999.523      -999.523               
   140 r.144                -996.767       -998.74               
   141 r.145                -999.523      -999.523               
   142 r.146                -996.767       -998.74               
   143 r.147                 34.4097      -988.151               
   144 r.148                 1034.41      -969.431               
   145 r.149                -968.346      -988.151               
   146 r.150                 31.6539      -969.431               
   147 r.151                 22.5611      -988.413               
   148 r.152                 1034.41      -971.278               
   149 r.153                -980.195      -988.413               
   150 r.154                 31.6539      -971.278               
   151 r.155                    1001             2               
   152 r.156                   -1001         -1001               
   153 r.157                 1988.41       7.79371               
   154 r.158                    1001             2               
   155 r.159                   -1001         -1001               
   156 r.160                 2009.48         19.08               
   157 r.161                    1000             2               
   158 r.162                   -1000         -1001               
   159 r.163                    2000        7.7562               
   160 r.164                       2             2               
   161 r.165                      -2         -1001               
   162 r.166                 21.0651       19.0147               
   163 r.167                    1000             2               
   164 r.168                   -1000         -1001               
   165 r.169                 977.439      0.477328               
   166 r.170                       2             2               
   167 r.171                      -2         -1001               
   168 r.172                 1.25981       1.25981               
   169 r.173                    1001             2               
   170 r.174                   -1001         -1001               
   171 r.175                 1980.62      -996.342               
   172 r.176                    1001             2               
   173 r.177                   -1001         -1001               
   174 r.178                 2009.48      -991.291               
   175 r.179                 23.0384      -999.186               
   176 r.180                -998.027      -998.027               
   177 r.181                 23.0384      -999.186               
   178 r.182                -998.027      -998.027               
   179 r.183                -988.151      -988.151               
   180 r.184                 11.8486      -969.431               
   181 r.185                -967.086      -988.151               
   182 r.186                 32.9137      -969.431               
   183 r.187                    1001             2               
   184 r.188                   -1001         -1001               
   185 r.189                    2000      -988.413               
   186 r.190                    1001             2               
   187 r.191                   -1001         -1001               
   188 r.192                 2032.91      -971.278               
   189 r.193                       2             2               
   190 r.194                      -2         -1001               
   191 r.195                 7.79371       7.79371               
   192 r.196                    1000             2               
   193 r.197                   -1000         -1001               
   194 r.198                    2000         19.08               
   195 r.199                    1001             2               
   196 r.200                   -1001         -1001               
   197 r.201                 2019.38        7.7562               
   198 r.202                    1001             2               
   199 r.203                   -1001         -1001               
   200 r.204                 2011.59       19.0147               
   201 r.205                    1001             2               
   202 r.206                   -1001         -1001               
   203 r.207                  996.82      0.477328               
   204 r.208                    1001             2               
   205 r.209                   -1001         -1001               
   206 r.210                 1991.78       1.25981               
   207 r.211                    1001             2               
   208 r.212                   -1001         -1001               
   209 r.213                 2019.38      0.813978               
   210 r.214                    1001             2               
   211 r.215                   -1001         -1001               
   212 r.216                 1990.52       1.97333               
   213 r.217                -996.342      -996.342               
   214 r.218                 11.4513      -991.291               
   215 r.219                -996.342      -996.342               
   216 r.220                 11.4513      -991.291               
   217 r.221                       2             2               
   218 r.222                      -2         -1001               
   219 r.223                -968.771      -988.151               
   220 r.224                    1000             2               
   221 r.225                   -1000         -1001               
   222 r.226                 2023.44      -969.431               
   223 r.227                -980.619      -988.413               
   224 r.228                 31.2294      -971.278               
   225 r.229                -988.413      -988.413               
   226 r.230                 23.4357      -971.278               
   227 r.231                -965.113      -988.151               
   228 r.232                  34.887      -969.431               
   229 r.233                -965.113      -988.151               
   230 r.234                  34.887      -969.431               
   231 r.235                       2             2               
   232 r.236                      -2         -1001               
   233 r.237                 968.771        3.6576               
   234 r.238                    1000             2               
   235 r.239                   -1000         -1001               
   236 r.240                 1976.56       8.70909               
   237 r.241                       2             2               
   238 r.242                      -2         -1001               
   239 r.243                -11.8486      -988.413               
   240 r.244                    1000             2               
   241 r.245                   -1000         -1001               
   242 r.246                    2000      -971.278               
   243 r.247                    1001             2               
   244 r.248                   -1001         -1001               
   245 r.249                    2000        7.7562               
   246 r.250                    1001             2               
   247 r.251                   -1001         -1001               
   248 r.252                 1988.15       19.0147               
   249 r.253                    1001             2               
   250 r.254                   -1001         -1001               
   251 r.255                    2000      0.813978               
   252 r.256                    1001             2               
   253 r.257                   -1001         -1001               
   254 r.258                 1967.09       1.97333               
   255 r.259                       2             2               
   256 r.260                      -2         -1001               
   257 r.261                 11.8486       11.8486               
   258 r.262                    1000             2               
   259 r.263                   -1000         -1001               
   260 r.264                    2000       30.5695               

   No. Column name       Activity     Lower bound   Upper bound
------ ------------    ------------- ------------- -------------
     1 tt                    35.1863             0               
     2 s_1_1        *              1             0             1 
     3 t_1_1                 23.4357             0               
     4 s_1_8        *              1             0             1 
     5 s_1_7        *              1             0             1 
     6 s_2_1        *              0             0             1 
     7 t_2_1                 23.4357             0               
     8 s_2_8        *              0             0             1 
     9 s_2_7        *              0             0             1 
    10 s_1_2        *              0             0             1 
    11 t_1_2                 11.8486             0               
    12 s_2_2        *              1             0             1 
    13 t_2_2                 11.8486             0               
    14 s_1_3        *              0             0             1 
    15 t_1_3                 1034.41             0               
    16 s_2_3        *              1             0             1 
    17 t_2_3                 31.6539             0               
    18 s_1_4        *              0             0             1 
    19 t_1_4                 11.8486             0               
    20 s_2_4        *              1             0             1 
    21 t_2_4                 32.9137             0               
    22 s_1_5        *              1             0             1 
    23 t_1_5                 31.2294             0               
    24 s_2_5        *              0             0             1 
    25 t_2_5                 23.4357             0               
    26 s_1_6        *              1             0             1 
    27 t_1_6                  34.887             0               
    28 s_2_6        *              0             0             1 
    29 t_2_6                  34.887             0               
    30 t_1_7                       0             0               
    31 t_2_7                       0             0               
    32 t_1_8                 11.8486             0               
    33 t_2_8                       0             0               
    34 r_1_1_2      *              1             0             1 
    35 u_1_1_2      *              0             0             1 
    36 r_2_1_2      *              1             0             1 
    37 u_2_1_2      *              0             0             1 
    38 r_1_1_3      *              1             0             1 
    39 u_1_1_3      *              0             0             1 
    40 r_2_1_3      *              1             0             1 
    41 u_2_1_3      *              0             0             1 
    42 r_1_1_4      *              1             0             1 
    43 u_1_1_4      *              0             0             1 
    44 r_2_1_4      *              1             0             1 
    45 u_2_1_4      *              0             0             1 
    46 r_1_1_5      *              0             0             1 
    47 u_1_1_5      *              0             0             1 
    48 r_2_1_5      *              1             0             1 
    49 u_2_1_5      *              0             0             1 
    50 r_1_2_3      *              1             0             1 
    51 u_1_2_3      *              0             0             1 
    52 r_2_2_3      *              0             0             1 
    53 u_2_2_3      *              0             0             1 
    54 r_1_2_4      *              1             0             1 
    55 u_1_2_4      *              0             0             1 
    56 r_2_2_4      *              0             0             1 
    57 u_2_2_4      *              0             0             1 
    58 r_1_2_5      *              1             0             1 
    59 u_1_2_5      *              0             0             1 
    60 r_2_2_5      *              1             0             1 
    61 u_2_2_5      *              0             0             1 
    62 r_1_2_8      *              1             0             1 
    63 u_1_2_8      *              0             0             1 
    64 r_2_2_8      *              1             0             1 
    65 u_2_2_8      *              0             0             1 
    66 r_1_3_4      *              1             0             1 
    67 u_1_3_4      *              0             0             1 
    68 r_2_3_4      *              0             0             1 
    69 u_2_3_4      *              0             0             1 
    70 r_1_3_5      *              1             0             1 
    71 u_1_3_5      *              0             0             1 
    72 r_2_3_5      *              1             0             1 
    73 u_2_3_5      *              0             0             1 
    74 r_1_4_5      *              1             0             1 
    75 u_1_4_5      *              0             0             1 
    76 r_2_4_5      *              1             0             1 
    77 u_2_4_5      *              0             0             1 
    78 r_1_4_8      *              1             0             1 
    79 u_1_4_8      *              0             0             1 
    80 r_2_4_8      *              1             0             1 
    81 u_2_4_8      *              0             0             1 
    82 r_1_5_7      *              0             0             1 
    83 u_1_5_7      *              1             0             1 
    84 r_2_5_7      *              1             0             1 
    85 u_2_5_7      *              0             0             1 
    86 r_1_7_8      *              0             0             1 
    87 u_1_7_8      *              0             0             1 
    88 r_2_7_8      *              1             0             1 
    89 u_2_7_8      *              0             0             1 

Integer feasibility conditions:

KKT.PE: max.abs.err = 0.00e+00 on row 0
        max.rel.err = 0.00e+00 on row 0
        High quality

KKT.PB: max.abs.err = 1.14e-13 on row 176
        max.rel.err = 1.14e-16 on row 176
        High quality

End of output
